problems/csplib-prob001/CarSequencing-models/noch/O0/minion/model-ReginPuget0-solution000001.eprime-solution
language ESSENCE' 1.0

letting car_Function1D be
        [1, 4, 7, 15, 3, 16, 2, 10, 8, 15, 1, 13, 2, 15, 8, 9, 2, 17, 3, 15, 6, 10, 3, 17, 5, 9, 7, 11, 5, 17, 1, 10, 8,
         15, 5, 12, 5, 10, 7, 11, 5, 16, 3, 10, 7, 11, 5, 16, 3, 10, 7, 11, 5, 16, 3, 15, 7, 11, 1, 17, 3, 15, 7, 9, 5,
         17, 5, 11, 6, 15, 5, 17, 7, 9, 8, 15, 7, 11, 1, 17, 8, 17, 14, 11, 7, 16, 7, 11, 14, 17, 11, 14, 17, 11, 14,
         17, 11, 14, 17, 18;
             int(1..100)]
